p cnf 29 32
1 2 3 0
-1 -2 -3 0
3 9 10 0
-3 -9 -10 0
4 6 8 0
-4 -6 -8 0
5 17 18 0
-5 -17 -18 0
6 11 13 0
-6 -11 -13 0
7 9 11 0
-7 -9 -11 0
8 17 19 0
-8 -17 -19 0
9 12 15 0
-9 -12 -15 0
9 25 27 0
-9 -25 -27 0
11 15 18 0
-11 -15 -18 0
11 26 28 0
-11 -26 -28 0
12 22 24 0
-12 -22 -24 0
14 17 22 0
-14 -17 -22 0
15 16 21 0
-15 -16 -21 0
16 20 25 0
-16 -20 -25 0
17 23 29 0
-17 -23 -29 0
